# Solution for model Objective
# Objective value = 10
M 10
W3 0
W4 0
W5 0
W9 0
W13 0
W14 0
W15 0
W22 0
W23 0
W24 0
W25 0
W26 0
W27 0
W28 0
W29 0
W30 0
W31 0
W34 0
W35 0
W39 0
W40 0
W41 0
W42 0
W43 0
W44 0
W50 0
W51 0
W52 0
W53 0
W54 0
W55 0
W63 0
W64 0
W65 0
W73 0
W74 0
W75 0
W76 0
W77 0
W78 0
W79 0
W80 0
W81 0
W0 2
W1 6
W2 1
W6 10
W7 4
W8 0
W10 9
W11 5
W12 8
W16 8
W17 4
W18 10
W19 0
W20 0
W21 5
W32 9
W33 5
W36 3
W37 9
W38 5
W45 7
W46 2
W47 2
W48 0
W49 1
W56 10
W57 4
W58 0
W59 5
W60 8
W61 3
W62 9
W66 4
W67 3
W68 0
W69 10
W70 9
W71 5
W72 8
d0_1 0
d0_2 0
d0_3 0
d0_4 0
d0_5 0
d0_6 0
d0_7 0
d0_8 0
d0_9 0
d0_10 0
d0_11 0
d0_12 0
d0_13 0
d0_14 0
d0_15 0
d0_16 0
d0_17 0
d0_18 0
d0_19 0
d0_20 0
d0_21 0
d0_22 0
d0_23 0
d0_24 0
d0_25 0
d0_26 0
d0_27 0
d0_28 0
d0_29 0
d0_0 1
d1_1 0
d1_2 0
d1_3 0
d1_4 0
d1_5 0
d1_6 0
d1_7 0
d1_8 1
d1_9 0
d1_10 0
d1_11 0
d1_12 0
d1_13 0
d1_14 0
d1_15 0
d1_16 0
d1_17 0
d1_18 0
d1_19 0
d1_20 0
d1_21 0
d1_22 0
d1_23 0
d1_24 0
d1_25 0
d1_26 0
d1_27 0
d1_28 0
d1_29 0
d1_0 0
d2_0 0
d2_1 0
d2_2 0
d2_3 0
d2_4 0
d2_5 1
d2_6 0
d2_7 0
d2_8 0
d2_9 0
d2_10 0
d2_11 0
d2_12 0
d2_13 0
d2_14 0
d2_15 0
d2_16 0
d2_17 0
d2_18 0
d2_19 0
d2_20 0
d2_21 0
d2_22 0
d2_23 0
d2_24 0
d2_25 0
d2_26 0
d2_27 0
d2_28 0
d2_29 0
d3_0 0
d3_1 0
d3_2 0
d3_3 0
d3_4 0
d3_5 0
d3_6 0
d3_7 0
d3_8 0
d3_9 1
d3_10 0
d3_11 0
d3_12 0
d3_13 0
d3_14 0
d3_15 0
d3_16 0
d3_17 0
d3_18 0
d3_19 0
d3_20 0
d3_21 0
d3_22 0
d3_23 0
d3_24 0
d3_25 0
d3_26 0
d3_27 0
d3_28 0
d3_29 0
d5_0 0
d5_1 0
d5_2 0
d5_3 0
d5_4 1
d5_5 0
d5_6 0
d5_7 0
d5_8 0
d5_9 0
d5_10 0
d5_11 0
d5_12 0
d5_13 0
d5_14 0
d5_15 0
d5_16 0
d5_17 0
d5_18 0
d5_19 0
d5_20 0
d5_21 0
d5_22 0
d5_23 0
d5_24 0
d5_25 0
d5_26 0
d5_27 0
d5_28 0
d5_29 0
d7_0 0
d7_1 0
d7_2 1
d7_3 0
d7_4 0
d7_5 0
d7_6 0
d7_7 0
d7_8 0
d7_9 0
d7_10 0
d7_11 0
d7_12 0
d7_13 0
d7_14 0
d7_15 0
d7_16 0
d7_17 0
d7_18 0
d7_19 0
d7_20 0
d7_21 0
d7_22 0
d7_23 0
d7_24 0
d7_25 0
d7_26 0
d7_27 0
d7_28 0
d7_29 0
d6_0 0
d6_1 0
d6_2 0
d6_3 0
d6_4 0
d6_5 0
d6_6 0
d6_7 0
d6_8 0
d6_9 0
d6_10 1
d6_11 0
d6_12 0
d6_13 0
d6_14 0
d6_15 0
d6_16 0
d6_17 0
d6_18 0
d6_19 0
d6_20 0
d6_21 0
d6_22 0
d6_23 0
d6_24 0
d6_25 0
d6_26 0
d6_27 0
d6_28 0
d6_29 0
d4_0 0
d4_1 0
d4_2 0
d4_3 1
d4_4 0
d4_5 0
d4_6 0
d4_7 0
d4_8 0
d4_9 0
d4_10 0
d4_11 0
d4_12 0
d4_13 0
d4_14 0
d4_15 0
d4_16 0
d4_17 0
d4_18 0
d4_19 0
d4_20 0
d4_21 0
d4_22 0
d4_23 0
d4_24 0
d4_25 0
d4_26 0
d4_27 0
d4_28 0
d4_29 0
d8_0 0
d8_1 0
d8_2 0
d8_3 0
d8_4 0
d8_5 0
d8_6 1
d8_7 0
d8_8 0
d8_9 0
d8_10 0
d8_11 0
d8_12 0
d8_13 0
d8_14 0
d8_15 0
d8_16 0
d8_17 0
d8_18 0
d8_19 0
d8_20 0
d8_21 0
d8_22 0
d8_23 0
d8_24 0
d8_25 0
d8_26 0
d8_27 0
d8_28 0
d8_29 0
d9_0 0
d9_1 1
d9_2 0
d9_3 0
d9_4 0
d9_5 0
d9_6 0
d9_7 0
d9_8 0
d9_9 0
d9_10 0
d9_11 0
d9_12 0
d9_13 0
d9_14 0
d9_15 0
d9_16 0
d9_17 0
d9_18 0
d9_19 0
d9_20 0
d9_21 0
d9_22 0
d9_23 0
d9_24 0
d9_25 0
d9_26 0
d9_27 0
d9_28 0
d9_29 0
d11_0 0
d11_1 0
d11_2 0
d11_3 0
d11_4 0
d11_5 0
d11_6 0
d11_7 1
d11_8 0
d11_9 0
d11_10 0
d11_11 0
d11_12 0
d11_13 0
d11_14 0
d11_15 0
d11_16 0
d11_17 0
d11_18 0
d11_19 0
d11_20 0
d11_21 0
d11_22 0
d11_23 0
d11_24 0
d11_25 0
d11_26 0
d11_27 0
d11_28 0
d11_29 0
d12_0 0
d12_1 0
d12_2 0
d12_3 0
d12_4 0
d12_5 0
d12_6 0
d12_7 0
d12_8 0
d12_9 0
d12_10 0
d12_11 0
d12_12 0
d12_13 0
d12_14 0
d12_15 0
d12_16 0
d12_17 0
d12_18 0
d12_19 0
d12_20 0
d12_21 0
d12_22 0
d12_23 0
d12_24 0
d12_25 0
d12_26 0
d12_27 0
d12_28 0
d12_29 0
d10_1 0
d10_2 1
d10_3 0
d10_4 0
d10_5 0
d10_6 0
d10_7 0
d10_8 0
d10_9 0
d10_10 0
d10_11 0
d10_12 0
d10_13 0
d10_14 0
d10_15 0
d10_16 0
d10_17 0
d10_18 0
d10_19 0
d10_20 0
d10_21 0
d10_22 0
d10_23 0
d10_24 0
d10_25 0
d10_26 0
d10_27 0
d10_28 0
d10_29 0
d10_0 0
